DATASET = "thpack7";
INSTANCE = "066";

WIDTH = 233;
HEIGHT = 220;
LENGTH = 587;

NO_OF_SHAPES = 20;
size = [|
  87,45,32 |
  84,63,46 |
  84,67,44 |
  76,55,30 |
  87,78,61 |
  115,77,53 |
  78,72,51 |
  93,91,62 |
  48,41,40 |
  92,82,53 |
  102,69,54 |
  80,52,34 |
  90,71,60 |
  66,43,42 |
  73,58,52 |
  66,66,26 |
  91,40,28 |
  72,34,33 |
  120,98,74 |
  68,56,43 |
|];

verticality = [|
  0,1,1 |
  1,1,1 |
  1,1,1 |
  0,1,1 |
  1,1,1 |
  0,1,1 |
  1,1,1 |
  1,1,1 |
  1,1,1 |
  1,1,1 |
  1,1,1 |
  0,1,1 |
  1,1,1 |
  1,1,1 |
  1,1,1 |
  0,0,1 |
  0,1,1 |
  0,1,1 |
  1,1,1 |
  1,1,1 |
|];

box_count = [
  14,
  4,
  8,
  6,
  3,
  4,
  4,
  5,
  10,
  4,
  7,
  5,
  6,
  3,
  6,
  5,
  4,
  7,
  6,
  6,
];
